  2	23
 34
  0	  6	 14	  1	 24	 29	 37	 13	  4	  9	 36	 27	 22	 20	 15	 17	 32	 21	 43	 12	 40	 44	 45	 38	 35	 11	 19	  5	 34	 42	 10	 33	 28	 47	
 16
  0	 23	  8	 18	  7	 46	 31	 16	 41	 30	  2	  3	 39	 26	 25	 47	
